
--- Job LpRankTest3.gms Start 05/09/22 15:47:52 38.2.1 96226ea8 WEX-WEI x86 64bit/MS Windows
--- Applying:
    C:\GAMS\38\gmsprmNT.txt
--- GAMS Parameters defined
    Input C:\projects\LpRankTest3.gms
    PageWidth 130
    PageSize 0
    PageContr 3
    Action CE
    ScrDir C:\projects\OptimizationModels\Sudoku\225a\
    SysDir C:\GAMS\38\
    WorkDir C:\projects\OptimizationModels\Sudoku\
    LogOption 3
    DFormat 0
    TFormat 0
    ErrorLog 99
    IDE 1
Licensee: Eval License                                   G211206|0002CO-GEN
          Amsterdam Optimization Modeling Group,                     DCE378
          C:\GAMS\38\gamslice.txt
          License Admin: Erwin Kalvelagen, info@amsterdamoptimization.com  
          Evaluation license: Not for commercial or production use
Processor information: 1 socket(s), 8 core(s), and 16 thread(s) available
GAMS 38.2.1   Copyright (C) 1987-2022 GAMS Development. All rights reserved
--- Starting compilation
--- LpRankTest3.gms(81) 3 Mb
--- Starting execution: elapsed 0:00:00.027
--- LpRankTest3.gms(73) 4 Mb
--- Generating LP model Rankmodel
--- LpRankTest3.gms(77) 4 Mb
---   16 rows  19 columns  38 non-zeroes
--- Executing CPLEX (Solvelink=2): elapsed 0:00:00.113

IBM ILOG CPLEX   38.2.1 96226ea8 Feb 19, 2022          WEI x86 64bit/MS Window

--- GAMS/Cplex Link licensed for continuous and discrete problems.
--- GMO setup time: 0.00s
--- GMO memory 0.50 Mb (peak 0.50 Mb)
--- Dictionary memory 0.00 Mb
--- Cplex 20.1.0.1 link memory 0.00 Mb (peak 0.00 Mb)
--- Starting Cplex

Version identifier: 20.1.0.1 | 2021-04-07 | 3a818710c
CPXPARAM_Advance                                 0
CPXPARAM_Simplex_Display                         2
CPXPARAM_Threads                                 1
CPXPARAM_MIP_Display                             4
CPXPARAM_MIP_Pool_Capacity                       0
CPXPARAM_MIP_Tolerances_AbsMIPGap                0
Tried aggregator 1 time.
LP Presolve eliminated 6 rows and 10 columns.
Aggregator did 6 substitutions.
Reduced LP has 3 rows, 3 columns, and 8 nonzeros.
Presolve time = 0.02 sec. (0.01 ticks)

Iteration      Dual Objective            In Variable           Out Variable
     1               1.000000           RankC(z1,i6)Unequal(z1,i6,i8) slack
     2               1.000000               Rank(i4)           RankC(z1,i6)

--- LP status (1): optimal.
--- Cplex Time: 0.05sec (det. 0.02 ticks)


Optimal solution found
Objective:            1.000000

--- Reading solution for model Rankmodel
--- Executing after solve: elapsed 0:00:00.292
--- LpRankTest3.gms(81) 4 Mb
--- GDX File (execute_unload) C:\projects\OptimizationModels\Sudoku\testrankings.gdx
*** Status: Normal completion
--- Job LpRankTest3.gms Stop 05/09/22 15:47:53 elapsed 0:00:00.293
